row=9;
column=9;

Board=[|9,8,2,0,0,1,0,0,0|4,1,0,7,2,3,8,0,6|6,7,3,0,0,5,4,0,0|5,3,1,0,7,0,9,8,0|2,0,9,0,0,8,6,1,0|0,6,7,0,9,4,3,5,0|0,0,0,0,0,7,2,0,5|7,0,0,5,0,6,0,3,0|1,0,6,2,0,9,7,0,8|];
